array [1..2] of int: X_INTRODUCED_1_ = [1,-1];
var {321,332,444,532,533,543}: Vb21:: output_var;
var {232,321,332,444,532,533,543,544}: Vb22:: output_var;
var {232,321,332,444,532,533,543,544}: Vb23:: output_var;
var {232,321,332,444,532,533,543,544}: Vb24:: output_var;
var {232,321,332,444,532,533,543,544}: Vb25:: output_var;
var {321,322,332,444,532,533,543,544}: Vp1:: output_var;
var {232,321,322,332,444,532,533,543,544}: Vp2:: output_var;
var {232,321,322,332,444,532,533,543,544}: Vp3:: output_var;
var {232,321,322,332,444,532,533,543,544}: Vp4:: output_var;
var bool: X_INTRODUCED_2_ ::var_is_introduced :: is_defined_var;
var bool: X_INTRODUCED_3_ ::var_is_introduced :: is_defined_var;
var bool: X_INTRODUCED_4_ ::var_is_introduced :: is_defined_var;
var bool: X_INTRODUCED_5_ ::var_is_introduced :: is_defined_var;
var 2..5: X_INTRODUCED_6_ ::var_is_introduced :: is_defined_var;
var 3..5: X_INTRODUCED_8_ ::var_is_introduced :: is_defined_var;
var bool: X_INTRODUCED_10_ ::var_is_introduced :: is_defined_var;
var {23,32,33,44,53,54}: X_INTRODUCED_11_ ::var_is_introduced :: is_defined_var;
var 2..4: X_INTRODUCED_12_ ::var_is_introduced ;
var {32,33,44,53,54}: X_INTRODUCED_13_ ::var_is_introduced :: is_defined_var;
var 2..4: X_INTRODUCED_14_ ::var_is_introduced ;
var bool: X_INTRODUCED_15_ ::var_is_introduced :: is_defined_var;
var 1..4: X_INTRODUCED_16_ ::var_is_introduced ;
var 1..4: X_INTRODUCED_17_ ::var_is_introduced ;
var bool: X_INTRODUCED_18_ ::var_is_introduced :: is_defined_var;
var 2..5: X_INTRODUCED_19_ ::var_is_introduced :: is_defined_var;
var bool: X_INTRODUCED_20_ ::var_is_introduced :: is_defined_var;
var {23,32,33,44,53,54}: X_INTRODUCED_21_ ::var_is_introduced :: is_defined_var;
var 2..4: X_INTRODUCED_22_ ::var_is_introduced ;
var bool: X_INTRODUCED_23_ ::var_is_introduced :: is_defined_var;
var 1..4: X_INTRODUCED_24_ ::var_is_introduced ;
var bool: X_INTRODUCED_26_ ::var_is_introduced :: is_defined_var;
var 2..5: X_INTRODUCED_27_ ::var_is_introduced :: is_defined_var;
var bool: X_INTRODUCED_28_ ::var_is_introduced :: is_defined_var;
var {23,32,33,44,53,54}: X_INTRODUCED_29_ ::var_is_introduced :: is_defined_var;
var 2..4: X_INTRODUCED_30_ ::var_is_introduced ;
var bool: X_INTRODUCED_32_ ::var_is_introduced :: is_defined_var;
var 1..4: X_INTRODUCED_33_ ::var_is_introduced ;
var bool: X_INTRODUCED_34_ ::var_is_introduced :: is_defined_var;
var 2..5: X_INTRODUCED_35_ ::var_is_introduced :: is_defined_var;
var bool: X_INTRODUCED_36_ ::var_is_introduced :: is_defined_var;
var {23,32,33,44,53,54}: X_INTRODUCED_37_ ::var_is_introduced :: is_defined_var;
var 2..4: X_INTRODUCED_38_ ::var_is_introduced ;
var bool: X_INTRODUCED_39_ ::var_is_introduced :: is_defined_var;
var 1..4: X_INTRODUCED_40_ ::var_is_introduced ;
var bool: X_INTRODUCED_42_ ::var_is_introduced :: is_defined_var;
var bool: X_INTRODUCED_43_ ::var_is_introduced :: is_defined_var;
var bool: X_INTRODUCED_44_ ::var_is_introduced :: is_defined_var;
var bool: X_INTRODUCED_45_ ::var_is_introduced :: is_defined_var;
var bool: X_INTRODUCED_47_ ::var_is_introduced :: is_defined_var;
var bool: X_INTRODUCED_48_ ::var_is_introduced :: is_defined_var;
var bool: X_INTRODUCED_49_ ::var_is_introduced :: is_defined_var;
var bool: X_INTRODUCED_50_ ::var_is_introduced :: is_defined_var;
var bool: X_INTRODUCED_51_ ::var_is_introduced :: is_defined_var;
var bool: X_INTRODUCED_52_ ::var_is_introduced :: is_defined_var;
var bool: X_INTRODUCED_53_ ::var_is_introduced :: is_defined_var;
var bool: X_INTRODUCED_54_ ::var_is_introduced :: is_defined_var;
var bool: X_INTRODUCED_55_ ::var_is_introduced :: is_defined_var;
var bool: X_INTRODUCED_57_ ::var_is_introduced :: is_defined_var;
var bool: X_INTRODUCED_58_ ::var_is_introduced :: is_defined_var;
var bool: X_INTRODUCED_59_ ::var_is_introduced :: is_defined_var;
var bool: X_INTRODUCED_60_ ::var_is_introduced :: is_defined_var;
var bool: X_INTRODUCED_61_ ::var_is_introduced :: is_defined_var;
var bool: X_INTRODUCED_62_ ::var_is_introduced :: is_defined_var;
var bool: X_INTRODUCED_63_ ::var_is_introduced :: is_defined_var;
var bool: X_INTRODUCED_64_ ::var_is_introduced :: is_defined_var;
var bool: X_INTRODUCED_65_ ::var_is_introduced :: is_defined_var;
var bool: X_INTRODUCED_66_ ::var_is_introduced :: is_defined_var;
var bool: X_INTRODUCED_67_ ::var_is_introduced :: is_defined_var;
var bool: X_INTRODUCED_68_ ::var_is_introduced :: is_defined_var;
var bool: X_INTRODUCED_69_ ::var_is_introduced :: is_defined_var;
var bool: X_INTRODUCED_70_ ::var_is_introduced :: is_defined_var;
var bool: X_INTRODUCED_71_ ::var_is_introduced :: is_defined_var;
var bool: X_INTRODUCED_72_ ::var_is_introduced :: is_defined_var;
var bool: X_INTRODUCED_73_ ::var_is_introduced :: is_defined_var;
var bool: X_INTRODUCED_74_ ::var_is_introduced :: is_defined_var;
var bool: X_INTRODUCED_75_ ::var_is_introduced :: is_defined_var;
var bool: X_INTRODUCED_76_ ::var_is_introduced :: is_defined_var;
var bool: X_INTRODUCED_77_ ::var_is_introduced :: is_defined_var;
var bool: X_INTRODUCED_78_ ::var_is_introduced :: is_defined_var;
var bool: X_INTRODUCED_79_ ::var_is_introduced :: is_defined_var;
var bool: X_INTRODUCED_80_ ::var_is_introduced :: is_defined_var;
var bool: X_INTRODUCED_81_ ::var_is_introduced :: is_defined_var;
var bool: X_INTRODUCED_82_ ::var_is_introduced :: is_defined_var;
var bool: X_INTRODUCED_83_ ::var_is_introduced :: is_defined_var;
var bool: X_INTRODUCED_84_ ::var_is_introduced :: is_defined_var;
var bool: X_INTRODUCED_85_ ::var_is_introduced :: is_defined_var;
var bool: X_INTRODUCED_86_ ::var_is_introduced :: is_defined_var;
var bool: X_INTRODUCED_87_ ::var_is_introduced :: is_defined_var;
var bool: X_INTRODUCED_88_ ::var_is_introduced :: is_defined_var;
var bool: X_INTRODUCED_89_ ::var_is_introduced :: is_defined_var;
var bool: X_INTRODUCED_90_ ::var_is_introduced :: is_defined_var;
var bool: X_INTRODUCED_91_ ::var_is_introduced :: is_defined_var;
var bool: X_INTRODUCED_92_ ::var_is_introduced :: is_defined_var;
var 2..5: X_INTRODUCED_93_ ::var_is_introduced :: is_defined_var;
var 3..5: X_INTRODUCED_94_ ::var_is_introduced :: is_defined_var;
var bool: X_INTRODUCED_95_ ::var_is_introduced :: is_defined_var;
var {23,32,33,44,53,54}: X_INTRODUCED_96_ ::var_is_introduced :: is_defined_var;
var 2..4: X_INTRODUCED_97_ ::var_is_introduced ;
var {32,33,44,53,54}: X_INTRODUCED_98_ ::var_is_introduced :: is_defined_var;
var 2..4: X_INTRODUCED_99_ ::var_is_introduced ;
var bool: X_INTRODUCED_100_ ::var_is_introduced :: is_defined_var;
var 1..4: X_INTRODUCED_101_ ::var_is_introduced ;
var 1..4: X_INTRODUCED_102_ ::var_is_introduced ;
var bool: X_INTRODUCED_104_ ::var_is_introduced :: is_defined_var;
var 2..5: X_INTRODUCED_105_ ::var_is_introduced :: is_defined_var;
var bool: X_INTRODUCED_106_ ::var_is_introduced :: is_defined_var;
var {23,32,33,44,53,54}: X_INTRODUCED_107_ ::var_is_introduced :: is_defined_var;
var 2..4: X_INTRODUCED_108_ ::var_is_introduced ;
var bool: X_INTRODUCED_110_ ::var_is_introduced :: is_defined_var;
var 1..4: X_INTRODUCED_111_ ::var_is_introduced ;
var bool: X_INTRODUCED_112_ ::var_is_introduced :: is_defined_var;
var 2..5: X_INTRODUCED_113_ ::var_is_introduced :: is_defined_var;
var bool: X_INTRODUCED_115_ ::var_is_introduced :: is_defined_var;
var {23,32,33,44,53,54}: X_INTRODUCED_116_ ::var_is_introduced :: is_defined_var;
var 2..4: X_INTRODUCED_117_ ::var_is_introduced ;
var bool: X_INTRODUCED_118_ ::var_is_introduced :: is_defined_var;
var 1..4: X_INTRODUCED_119_ ::var_is_introduced ;
var bool: X_INTRODUCED_120_ ::var_is_introduced :: is_defined_var;
var bool: X_INTRODUCED_121_ ::var_is_introduced :: is_defined_var;
var bool: X_INTRODUCED_123_ ::var_is_introduced :: is_defined_var;
var bool: X_INTRODUCED_124_ ::var_is_introduced :: is_defined_var;
var bool: X_INTRODUCED_125_ ::var_is_introduced :: is_defined_var;
var bool: X_INTRODUCED_127_ ::var_is_introduced :: is_defined_var;
var bool: X_INTRODUCED_128_ ::var_is_introduced :: is_defined_var;
var bool: X_INTRODUCED_129_ ::var_is_introduced :: is_defined_var;
var bool: X_INTRODUCED_131_ ::var_is_introduced :: is_defined_var;
var bool: X_INTRODUCED_132_ ::var_is_introduced :: is_defined_var;
var bool: X_INTRODUCED_133_ ::var_is_introduced :: is_defined_var;
var bool: X_INTRODUCED_134_ ::var_is_introduced :: is_defined_var;
var bool: X_INTRODUCED_135_ ::var_is_introduced :: is_defined_var;
var bool: X_INTRODUCED_136_ ::var_is_introduced :: is_defined_var;
var bool: X_INTRODUCED_137_ ::var_is_introduced :: is_defined_var;
var bool: X_INTRODUCED_138_ ::var_is_introduced :: is_defined_var;
var bool: X_INTRODUCED_139_ ::var_is_introduced :: is_defined_var;
var bool: X_INTRODUCED_140_ ::var_is_introduced :: is_defined_var;
var bool: X_INTRODUCED_141_ ::var_is_introduced :: is_defined_var;
var bool: X_INTRODUCED_142_ ::var_is_introduced :: is_defined_var;
var bool: X_INTRODUCED_143_ ::var_is_introduced :: is_defined_var;
var bool: X_INTRODUCED_144_ ::var_is_introduced :: is_defined_var;
var bool: X_INTRODUCED_145_ ::var_is_introduced :: is_defined_var;
var bool: X_INTRODUCED_146_ ::var_is_introduced :: is_defined_var;
var bool: X_INTRODUCED_147_ ::var_is_introduced :: is_defined_var;
var bool: X_INTRODUCED_148_ ::var_is_introduced :: is_defined_var;
var bool: X_INTRODUCED_149_ ::var_is_introduced :: is_defined_var;
var bool: X_INTRODUCED_150_ ::var_is_introduced :: is_defined_var;
var bool: X_INTRODUCED_151_ ::var_is_introduced :: is_defined_var;
var bool: X_INTRODUCED_152_ ::var_is_introduced :: is_defined_var;
var bool: X_INTRODUCED_153_ ::var_is_introduced :: is_defined_var;
var bool: X_INTRODUCED_154_ ::var_is_introduced :: is_defined_var;
var bool: X_INTRODUCED_155_ ::var_is_introduced :: is_defined_var;
var bool: X_INTRODUCED_156_ ::var_is_introduced :: is_defined_var;
var bool: X_INTRODUCED_157_ ::var_is_introduced :: is_defined_var;
var bool: X_INTRODUCED_158_ ::var_is_introduced :: is_defined_var;
var bool: X_INTRODUCED_159_ ::var_is_introduced :: is_defined_var;
var bool: X_INTRODUCED_160_ ::var_is_introduced :: is_defined_var;
var bool: X_INTRODUCED_161_ ::var_is_introduced :: is_defined_var;
var bool: X_INTRODUCED_162_ ::var_is_introduced :: is_defined_var;
var bool: X_INTRODUCED_163_ ::var_is_introduced :: is_defined_var;
var bool: X_INTRODUCED_164_ ::var_is_introduced :: is_defined_var;
var bool: X_INTRODUCED_165_ ::var_is_introduced :: is_defined_var;
constraint int_lin_ne(X_INTRODUCED_1_,[Vb21,Vb22],0);
constraint int_lin_ne(X_INTRODUCED_1_,[Vb21,Vb23],0);
constraint int_lin_ne(X_INTRODUCED_1_,[Vb21,Vb24],0);
constraint int_lin_ne(X_INTRODUCED_1_,[Vb21,Vb25],0);
constraint int_lin_ne(X_INTRODUCED_1_,[Vb21,Vp1],0);
constraint int_lin_ne(X_INTRODUCED_1_,[Vb21,Vp2],0);
constraint int_lin_ne(X_INTRODUCED_1_,[Vb21,Vp3],0);
constraint int_lin_ne(X_INTRODUCED_1_,[Vb21,Vp4],0);
constraint int_lin_ne(X_INTRODUCED_1_,[Vb22,Vb23],0);
constraint int_lin_ne(X_INTRODUCED_1_,[Vb22,Vb24],0);
constraint int_lin_ne(X_INTRODUCED_1_,[Vb22,Vb25],0);
constraint int_lin_ne(X_INTRODUCED_1_,[Vb22,Vp1],0);
constraint int_lin_ne(X_INTRODUCED_1_,[Vb22,Vp2],0);
constraint int_lin_ne(X_INTRODUCED_1_,[Vb22,Vp3],0);
constraint int_lin_ne(X_INTRODUCED_1_,[Vb22,Vp4],0);
constraint int_lin_ne(X_INTRODUCED_1_,[Vb23,Vb24],0);
constraint int_lin_ne(X_INTRODUCED_1_,[Vb23,Vb25],0);
constraint int_lin_ne(X_INTRODUCED_1_,[Vb23,Vp1],0);
constraint int_lin_ne(X_INTRODUCED_1_,[Vb23,Vp2],0);
constraint int_lin_ne(X_INTRODUCED_1_,[Vb23,Vp3],0);
constraint int_lin_ne(X_INTRODUCED_1_,[Vb23,Vp4],0);
constraint int_lin_ne(X_INTRODUCED_1_,[Vb24,Vb25],0);
constraint int_lin_ne(X_INTRODUCED_1_,[Vb24,Vp1],0);
constraint int_lin_ne(X_INTRODUCED_1_,[Vb24,Vp2],0);
constraint int_lin_ne(X_INTRODUCED_1_,[Vb24,Vp3],0);
constraint int_lin_ne(X_INTRODUCED_1_,[Vb24,Vp4],0);
constraint int_lin_ne(X_INTRODUCED_1_,[Vb25,Vp1],0);
constraint int_lin_ne(X_INTRODUCED_1_,[Vb25,Vp2],0);
constraint int_lin_ne(X_INTRODUCED_1_,[Vb25,Vp3],0);
constraint int_lin_ne(X_INTRODUCED_1_,[Vb25,Vp4],0);
constraint int_lin_ne(X_INTRODUCED_1_,[Vp1,Vp2],0);
constraint int_lin_ne(X_INTRODUCED_1_,[Vp1,Vp3],0);
constraint int_lin_ne(X_INTRODUCED_1_,[Vp1,Vp4],0);
constraint int_lin_ne(X_INTRODUCED_1_,[Vp2,Vp3],0);
constraint int_lin_ne(X_INTRODUCED_1_,[Vp2,Vp4],0);
constraint int_lin_ne(X_INTRODUCED_1_,[Vp3,Vp4],0);
constraint array_bool_or([X_INTRODUCED_5_,X_INTRODUCED_4_,X_INTRODUCED_3_,X_INTRODUCED_2_],true);
constraint int_div(Vb22,100,X_INTRODUCED_6_):: defines_var(X_INTRODUCED_6_);
constraint int_div(Vb21,100,X_INTRODUCED_8_):: defines_var(X_INTRODUCED_8_);
constraint int_div(Vb22,10,X_INTRODUCED_11_):: defines_var(X_INTRODUCED_11_);
constraint int_mod(X_INTRODUCED_11_,10,X_INTRODUCED_12_);
constraint int_div(Vb21,10,X_INTRODUCED_13_):: defines_var(X_INTRODUCED_13_);
constraint int_mod(X_INTRODUCED_13_,10,X_INTRODUCED_14_);
constraint int_mod(Vb22,10,X_INTRODUCED_16_);
constraint int_mod(Vb21,10,X_INTRODUCED_17_);
constraint int_div(Vb23,100,X_INTRODUCED_19_):: defines_var(X_INTRODUCED_19_);
constraint int_div(Vb23,10,X_INTRODUCED_21_):: defines_var(X_INTRODUCED_21_);
constraint int_mod(X_INTRODUCED_21_,10,X_INTRODUCED_22_);
constraint int_mod(Vb23,10,X_INTRODUCED_24_);
constraint int_div(Vb24,100,X_INTRODUCED_27_):: defines_var(X_INTRODUCED_27_);
constraint int_div(Vb24,10,X_INTRODUCED_29_):: defines_var(X_INTRODUCED_29_);
constraint int_mod(X_INTRODUCED_29_,10,X_INTRODUCED_30_);
constraint int_mod(Vb24,10,X_INTRODUCED_33_);
constraint int_div(Vb25,100,X_INTRODUCED_35_):: defines_var(X_INTRODUCED_35_);
constraint int_div(Vb25,10,X_INTRODUCED_37_):: defines_var(X_INTRODUCED_37_);
constraint int_mod(X_INTRODUCED_37_,10,X_INTRODUCED_38_);
constraint int_mod(Vb25,10,X_INTRODUCED_40_);
constraint array_bool_or([X_INTRODUCED_88_,X_INTRODUCED_87_,X_INTRODUCED_86_,X_INTRODUCED_85_,X_INTRODUCED_84_,X_INTRODUCED_83_,X_INTRODUCED_82_,X_INTRODUCED_81_,X_INTRODUCED_79_,X_INTRODUCED_78_,X_INTRODUCED_77_,X_INTRODUCED_75_,X_INTRODUCED_74_,X_INTRODUCED_73_,X_INTRODUCED_71_,X_INTRODUCED_69_,X_INTRODUCED_64_,X_INTRODUCED_58_,X_INTRODUCED_54_,X_INTRODUCED_43_,X_INTRODUCED_92_,X_INTRODUCED_91_,X_INTRODUCED_90_,X_INTRODUCED_89_],true);
constraint int_div(Vp2,100,X_INTRODUCED_93_):: defines_var(X_INTRODUCED_93_);
constraint int_div(Vp1,100,X_INTRODUCED_94_):: defines_var(X_INTRODUCED_94_);
constraint int_div(Vp2,10,X_INTRODUCED_96_):: defines_var(X_INTRODUCED_96_);
constraint int_mod(X_INTRODUCED_96_,10,X_INTRODUCED_97_);
constraint int_div(Vp1,10,X_INTRODUCED_98_):: defines_var(X_INTRODUCED_98_);
constraint int_mod(X_INTRODUCED_98_,10,X_INTRODUCED_99_);
constraint int_mod(Vp2,10,X_INTRODUCED_101_);
constraint int_mod(Vp1,10,X_INTRODUCED_102_);
constraint int_div(Vp3,100,X_INTRODUCED_105_):: defines_var(X_INTRODUCED_105_);
constraint int_div(Vp3,10,X_INTRODUCED_107_):: defines_var(X_INTRODUCED_107_);
constraint int_mod(X_INTRODUCED_107_,10,X_INTRODUCED_108_);
constraint int_mod(Vp3,10,X_INTRODUCED_111_);
constraint int_div(Vp4,100,X_INTRODUCED_113_):: defines_var(X_INTRODUCED_113_);
constraint int_div(Vp4,10,X_INTRODUCED_116_):: defines_var(X_INTRODUCED_116_);
constraint int_mod(X_INTRODUCED_116_,10,X_INTRODUCED_117_);
constraint int_mod(Vp4,10,X_INTRODUCED_119_);
constraint array_bool_or([X_INTRODUCED_165_,X_INTRODUCED_164_,X_INTRODUCED_163_,X_INTRODUCED_162_,X_INTRODUCED_161_,X_INTRODUCED_160_,X_INTRODUCED_159_,X_INTRODUCED_158_,X_INTRODUCED_157_,X_INTRODUCED_156_,X_INTRODUCED_154_,X_INTRODUCED_153_,X_INTRODUCED_152_,X_INTRODUCED_151_,X_INTRODUCED_149_,X_INTRODUCED_148_,X_INTRODUCED_146_,X_INTRODUCED_144_,X_INTRODUCED_143_,X_INTRODUCED_141_,X_INTRODUCED_139_,X_INTRODUCED_135_,X_INTRODUCED_132_,X_INTRODUCED_121_],true);
constraint int_eq_reif(Vp1,322,X_INTRODUCED_2_):: defines_var(X_INTRODUCED_2_);
constraint int_eq_reif(Vp2,322,X_INTRODUCED_3_):: defines_var(X_INTRODUCED_3_);
constraint int_eq_reif(Vp3,322,X_INTRODUCED_4_):: defines_var(X_INTRODUCED_4_);
constraint int_eq_reif(Vp4,322,X_INTRODUCED_5_):: defines_var(X_INTRODUCED_5_);
constraint int_lin_eq_reif(X_INTRODUCED_1_,[X_INTRODUCED_6_,X_INTRODUCED_8_],-1,X_INTRODUCED_10_):: defines_var(X_INTRODUCED_10_);
constraint int_eq_reif(X_INTRODUCED_12_,X_INTRODUCED_14_,X_INTRODUCED_15_):: defines_var(X_INTRODUCED_15_);
constraint int_eq_reif(X_INTRODUCED_16_,X_INTRODUCED_17_,X_INTRODUCED_18_):: defines_var(X_INTRODUCED_18_);
constraint int_eq_reif(X_INTRODUCED_19_,X_INTRODUCED_8_,X_INTRODUCED_20_):: defines_var(X_INTRODUCED_20_);
constraint int_eq_reif(X_INTRODUCED_22_,X_INTRODUCED_14_,X_INTRODUCED_23_):: defines_var(X_INTRODUCED_23_);
constraint int_lin_eq_reif(X_INTRODUCED_1_,[X_INTRODUCED_24_,X_INTRODUCED_17_],-1,X_INTRODUCED_26_):: defines_var(X_INTRODUCED_26_);
constraint int_eq_reif(X_INTRODUCED_27_,X_INTRODUCED_8_,X_INTRODUCED_28_):: defines_var(X_INTRODUCED_28_);
constraint int_lin_eq_reif(X_INTRODUCED_1_,[X_INTRODUCED_30_,X_INTRODUCED_14_],-1,X_INTRODUCED_32_):: defines_var(X_INTRODUCED_32_);
constraint int_lin_eq_reif(X_INTRODUCED_1_,[X_INTRODUCED_33_,X_INTRODUCED_17_],-1,X_INTRODUCED_34_):: defines_var(X_INTRODUCED_34_);
constraint int_lin_eq_reif(X_INTRODUCED_1_,[X_INTRODUCED_35_,X_INTRODUCED_8_],-1,X_INTRODUCED_36_):: defines_var(X_INTRODUCED_36_);
constraint int_eq_reif(X_INTRODUCED_38_,X_INTRODUCED_14_,X_INTRODUCED_39_):: defines_var(X_INTRODUCED_39_);
constraint int_lin_eq_reif(X_INTRODUCED_1_,[X_INTRODUCED_40_,X_INTRODUCED_17_],1,X_INTRODUCED_42_):: defines_var(X_INTRODUCED_42_);
constraint array_bool_and([X_INTRODUCED_42_,X_INTRODUCED_39_,X_INTRODUCED_36_,X_INTRODUCED_34_,X_INTRODUCED_32_,X_INTRODUCED_28_,X_INTRODUCED_26_,X_INTRODUCED_23_,X_INTRODUCED_20_,X_INTRODUCED_18_,X_INTRODUCED_15_,X_INTRODUCED_10_],X_INTRODUCED_43_):: defines_var(X_INTRODUCED_43_);
constraint int_eq_reif(X_INTRODUCED_6_,X_INTRODUCED_8_,X_INTRODUCED_44_):: defines_var(X_INTRODUCED_44_);
constraint int_lin_eq_reif(X_INTRODUCED_1_,[X_INTRODUCED_16_,X_INTRODUCED_17_],1,X_INTRODUCED_45_):: defines_var(X_INTRODUCED_45_);
constraint int_lin_eq_reif(X_INTRODUCED_1_,[X_INTRODUCED_22_,X_INTRODUCED_14_],1,X_INTRODUCED_47_):: defines_var(X_INTRODUCED_47_);
constraint int_eq_reif(X_INTRODUCED_24_,X_INTRODUCED_17_,X_INTRODUCED_48_):: defines_var(X_INTRODUCED_48_);
constraint int_lin_eq_reif(X_INTRODUCED_1_,[X_INTRODUCED_27_,X_INTRODUCED_8_],-1,X_INTRODUCED_49_):: defines_var(X_INTRODUCED_49_);
constraint int_lin_eq_reif(X_INTRODUCED_1_,[X_INTRODUCED_30_,X_INTRODUCED_14_],1,X_INTRODUCED_50_):: defines_var(X_INTRODUCED_50_);
constraint int_eq_reif(X_INTRODUCED_33_,X_INTRODUCED_17_,X_INTRODUCED_51_):: defines_var(X_INTRODUCED_51_);
constraint int_eq_reif(X_INTRODUCED_35_,X_INTRODUCED_8_,X_INTRODUCED_52_):: defines_var(X_INTRODUCED_52_);
constraint int_lin_eq_reif(X_INTRODUCED_1_,[X_INTRODUCED_38_,X_INTRODUCED_14_],-1,X_INTRODUCED_53_):: defines_var(X_INTRODUCED_53_);
constraint array_bool_and([X_INTRODUCED_53_,X_INTRODUCED_52_,X_INTRODUCED_51_,X_INTRODUCED_50_,X_INTRODUCED_49_,X_INTRODUCED_48_,X_INTRODUCED_47_,X_INTRODUCED_45_,X_INTRODUCED_44_,X_INTRODUCED_42_,X_INTRODUCED_20_,X_INTRODUCED_15_],X_INTRODUCED_54_):: defines_var(X_INTRODUCED_54_);
constraint int_lin_eq_reif(X_INTRODUCED_1_,[X_INTRODUCED_19_,X_INTRODUCED_8_],-1,X_INTRODUCED_55_):: defines_var(X_INTRODUCED_55_);
constraint int_lin_eq_reif(X_INTRODUCED_1_,[X_INTRODUCED_35_,X_INTRODUCED_8_],1,X_INTRODUCED_57_):: defines_var(X_INTRODUCED_57_);
constraint array_bool_and([X_INTRODUCED_57_,X_INTRODUCED_55_,X_INTRODUCED_51_,X_INTRODUCED_49_,X_INTRODUCED_48_,X_INTRODUCED_45_,X_INTRODUCED_44_,X_INTRODUCED_42_,X_INTRODUCED_39_,X_INTRODUCED_32_,X_INTRODUCED_23_,X_INTRODUCED_15_],X_INTRODUCED_58_):: defines_var(X_INTRODUCED_58_);
constraint int_lin_eq_reif(X_INTRODUCED_1_,[X_INTRODUCED_12_,X_INTRODUCED_14_],1,X_INTRODUCED_59_):: defines_var(X_INTRODUCED_59_);
constraint int_eq_reif(X_INTRODUCED_30_,X_INTRODUCED_14_,X_INTRODUCED_60_):: defines_var(X_INTRODUCED_60_);
constraint int_lin_eq_reif(X_INTRODUCED_1_,[X_INTRODUCED_33_,X_INTRODUCED_17_],1,X_INTRODUCED_61_):: defines_var(X_INTRODUCED_61_);
constraint int_lin_eq_reif(X_INTRODUCED_1_,[X_INTRODUCED_38_,X_INTRODUCED_14_],1,X_INTRODUCED_62_):: defines_var(X_INTRODUCED_62_);
constraint int_eq_reif(X_INTRODUCED_40_,X_INTRODUCED_17_,X_INTRODUCED_63_):: defines_var(X_INTRODUCED_63_);
constraint array_bool_and([X_INTRODUCED_63_,X_INTRODUCED_62_,X_INTRODUCED_61_,X_INTRODUCED_60_,X_INTRODUCED_59_,X_INTRODUCED_57_,X_INTRODUCED_55_,X_INTRODUCED_49_,X_INTRODUCED_48_,X_INTRODUCED_44_,X_INTRODUCED_23_,X_INTRODUCED_18_],X_INTRODUCED_64_):: defines_var(X_INTRODUCED_64_);
constraint int_lin_eq_reif(X_INTRODUCED_1_,[X_INTRODUCED_16_,X_INTRODUCED_17_],-1,X_INTRODUCED_65_):: defines_var(X_INTRODUCED_65_);
constraint int_lin_eq_reif(X_INTRODUCED_1_,[X_INTRODUCED_19_,X_INTRODUCED_8_],1,X_INTRODUCED_66_):: defines_var(X_INTRODUCED_66_);
constraint int_lin_eq_reif(X_INTRODUCED_1_,[X_INTRODUCED_27_,X_INTRODUCED_8_],1,X_INTRODUCED_67_):: defines_var(X_INTRODUCED_67_);
constraint int_lin_eq_reif(X_INTRODUCED_1_,[X_INTRODUCED_40_,X_INTRODUCED_17_],-1,X_INTRODUCED_68_):: defines_var(X_INTRODUCED_68_);
constraint array_bool_and([X_INTRODUCED_68_,X_INTRODUCED_67_,X_INTRODUCED_66_,X_INTRODUCED_65_,X_INTRODUCED_51_,X_INTRODUCED_48_,X_INTRODUCED_44_,X_INTRODUCED_39_,X_INTRODUCED_36_,X_INTRODUCED_32_,X_INTRODUCED_23_,X_INTRODUCED_15_],X_INTRODUCED_69_):: defines_var(X_INTRODUCED_69_);
constraint int_lin_eq_reif(X_INTRODUCED_1_,[X_INTRODUCED_22_,X_INTRODUCED_14_],-1,X_INTRODUCED_70_):: defines_var(X_INTRODUCED_70_);
constraint array_bool_and([X_INTRODUCED_70_,X_INTRODUCED_63_,X_INTRODUCED_62_,X_INTRODUCED_61_,X_INTRODUCED_48_,X_INTRODUCED_36_,X_INTRODUCED_32_,X_INTRODUCED_28_,X_INTRODUCED_20_,X_INTRODUCED_18_,X_INTRODUCED_15_,X_INTRODUCED_10_],X_INTRODUCED_71_):: defines_var(X_INTRODUCED_71_);
constraint int_lin_eq_reif(X_INTRODUCED_1_,[X_INTRODUCED_6_,X_INTRODUCED_8_],1,X_INTRODUCED_72_):: defines_var(X_INTRODUCED_72_);
constraint array_bool_and([X_INTRODUCED_72_,X_INTRODUCED_57_,X_INTRODUCED_50_,X_INTRODUCED_42_,X_INTRODUCED_39_,X_INTRODUCED_34_,X_INTRODUCED_28_,X_INTRODUCED_26_,X_INTRODUCED_23_,X_INTRODUCED_20_,X_INTRODUCED_18_,X_INTRODUCED_15_],X_INTRODUCED_73_):: defines_var(X_INTRODUCED_73_);
constraint array_bool_and([X_INTRODUCED_62_,X_INTRODUCED_60_,X_INTRODUCED_59_,X_INTRODUCED_52_,X_INTRODUCED_49_,X_INTRODUCED_44_,X_INTRODUCED_42_,X_INTRODUCED_34_,X_INTRODUCED_26_,X_INTRODUCED_23_,X_INTRODUCED_20_,X_INTRODUCED_18_],X_INTRODUCED_74_):: defines_var(X_INTRODUCED_74_);
constraint array_bool_and([X_INTRODUCED_70_,X_INTRODUCED_68_,X_INTRODUCED_65_,X_INTRODUCED_62_,X_INTRODUCED_52_,X_INTRODUCED_51_,X_INTRODUCED_49_,X_INTRODUCED_48_,X_INTRODUCED_44_,X_INTRODUCED_32_,X_INTRODUCED_20_,X_INTRODUCED_15_],X_INTRODUCED_75_):: defines_var(X_INTRODUCED_75_);
constraint int_lin_eq_reif(X_INTRODUCED_1_,[X_INTRODUCED_12_,X_INTRODUCED_14_],-1,X_INTRODUCED_76_):: defines_var(X_INTRODUCED_76_);
constraint array_bool_and([X_INTRODUCED_76_,X_INTRODUCED_67_,X_INTRODUCED_60_,X_INTRODUCED_53_,X_INTRODUCED_52_,X_INTRODUCED_44_,X_INTRODUCED_42_,X_INTRODUCED_34_,X_INTRODUCED_26_,X_INTRODUCED_23_,X_INTRODUCED_20_,X_INTRODUCED_18_],X_INTRODUCED_77_):: defines_var(X_INTRODUCED_77_);
constraint array_bool_and([X_INTRODUCED_72_,X_INTRODUCED_70_,X_INTRODUCED_63_,X_INTRODUCED_62_,X_INTRODUCED_57_,X_INTRODUCED_48_,X_INTRODUCED_34_,X_INTRODUCED_32_,X_INTRODUCED_28_,X_INTRODUCED_20_,X_INTRODUCED_18_,X_INTRODUCED_15_],X_INTRODUCED_78_):: defines_var(X_INTRODUCED_78_);
constraint array_bool_and([X_INTRODUCED_67_,X_INTRODUCED_66_,X_INTRODUCED_51_,X_INTRODUCED_50_,X_INTRODUCED_48_,X_INTRODUCED_45_,X_INTRODUCED_44_,X_INTRODUCED_42_,X_INTRODUCED_39_,X_INTRODUCED_36_,X_INTRODUCED_23_,X_INTRODUCED_15_],X_INTRODUCED_79_):: defines_var(X_INTRODUCED_79_);
constraint int_lin_eq_reif(X_INTRODUCED_1_,[X_INTRODUCED_24_,X_INTRODUCED_17_],1,X_INTRODUCED_80_):: defines_var(X_INTRODUCED_80_);
constraint array_bool_and([X_INTRODUCED_80_,X_INTRODUCED_72_,X_INTRODUCED_68_,X_INTRODUCED_61_,X_INTRODUCED_57_,X_INTRODUCED_39_,X_INTRODUCED_32_,X_INTRODUCED_28_,X_INTRODUCED_23_,X_INTRODUCED_20_,X_INTRODUCED_18_,X_INTRODUCED_15_],X_INTRODUCED_81_):: defines_var(X_INTRODUCED_81_);
constraint array_bool_and([X_INTRODUCED_63_,X_INTRODUCED_53_,X_INTRODUCED_50_,X_INTRODUCED_48_,X_INTRODUCED_47_,X_INTRODUCED_36_,X_INTRODUCED_34_,X_INTRODUCED_28_,X_INTRODUCED_20_,X_INTRODUCED_18_,X_INTRODUCED_15_,X_INTRODUCED_10_],X_INTRODUCED_82_):: defines_var(X_INTRODUCED_82_);
constraint array_bool_and([X_INTRODUCED_80_,X_INTRODUCED_76_,X_INTRODUCED_68_,X_INTRODUCED_61_,X_INTRODUCED_60_,X_INTRODUCED_53_,X_INTRODUCED_52_,X_INTRODUCED_49_,X_INTRODUCED_44_,X_INTRODUCED_23_,X_INTRODUCED_20_,X_INTRODUCED_18_],X_INTRODUCED_83_):: defines_var(X_INTRODUCED_83_);
constraint array_bool_and([X_INTRODUCED_68_,X_INTRODUCED_67_,X_INTRODUCED_65_,X_INTRODUCED_53_,X_INTRODUCED_52_,X_INTRODUCED_51_,X_INTRODUCED_50_,X_INTRODUCED_48_,X_INTRODUCED_47_,X_INTRODUCED_44_,X_INTRODUCED_20_,X_INTRODUCED_15_],X_INTRODUCED_84_):: defines_var(X_INTRODUCED_84_);
constraint array_bool_and([X_INTRODUCED_80_,X_INTRODUCED_68_,X_INTRODUCED_61_,X_INTRODUCED_50_,X_INTRODUCED_39_,X_INTRODUCED_36_,X_INTRODUCED_28_,X_INTRODUCED_23_,X_INTRODUCED_20_,X_INTRODUCED_18_,X_INTRODUCED_15_,X_INTRODUCED_10_],X_INTRODUCED_85_):: defines_var(X_INTRODUCED_85_);
constraint array_bool_and([X_INTRODUCED_80_,X_INTRODUCED_68_,X_INTRODUCED_67_,X_INTRODUCED_62_,X_INTRODUCED_61_,X_INTRODUCED_60_,X_INTRODUCED_59_,X_INTRODUCED_52_,X_INTRODUCED_44_,X_INTRODUCED_23_,X_INTRODUCED_20_,X_INTRODUCED_18_],X_INTRODUCED_86_):: defines_var(X_INTRODUCED_86_);
constraint array_bool_and([X_INTRODUCED_76_,X_INTRODUCED_67_,X_INTRODUCED_66_,X_INTRODUCED_63_,X_INTRODUCED_61_,X_INTRODUCED_60_,X_INTRODUCED_53_,X_INTRODUCED_48_,X_INTRODUCED_44_,X_INTRODUCED_36_,X_INTRODUCED_23_,X_INTRODUCED_18_],X_INTRODUCED_87_):: defines_var(X_INTRODUCED_87_);
constraint array_bool_and([X_INTRODUCED_70_,X_INTRODUCED_67_,X_INTRODUCED_62_,X_INTRODUCED_52_,X_INTRODUCED_51_,X_INTRODUCED_48_,X_INTRODUCED_45_,X_INTRODUCED_44_,X_INTRODUCED_42_,X_INTRODUCED_32_,X_INTRODUCED_20_,X_INTRODUCED_15_],X_INTRODUCED_88_):: defines_var(X_INTRODUCED_88_);
constraint array_bool_and([X_INTRODUCED_68_,X_INTRODUCED_65_,X_INTRODUCED_57_,X_INTRODUCED_55_,X_INTRODUCED_51_,X_INTRODUCED_50_,X_INTRODUCED_49_,X_INTRODUCED_48_,X_INTRODUCED_44_,X_INTRODUCED_39_,X_INTRODUCED_23_,X_INTRODUCED_15_],X_INTRODUCED_89_):: defines_var(X_INTRODUCED_89_);
constraint array_bool_and([X_INTRODUCED_72_,X_INTRODUCED_63_,X_INTRODUCED_61_,X_INTRODUCED_57_,X_INTRODUCED_53_,X_INTRODUCED_50_,X_INTRODUCED_48_,X_INTRODUCED_47_,X_INTRODUCED_28_,X_INTRODUCED_20_,X_INTRODUCED_18_,X_INTRODUCED_15_],X_INTRODUCED_90_):: defines_var(X_INTRODUCED_90_);
constraint array_bool_and([X_INTRODUCED_67_,X_INTRODUCED_66_,X_INTRODUCED_63_,X_INTRODUCED_62_,X_INTRODUCED_60_,X_INTRODUCED_59_,X_INTRODUCED_48_,X_INTRODUCED_44_,X_INTRODUCED_36_,X_INTRODUCED_34_,X_INTRODUCED_23_,X_INTRODUCED_18_],X_INTRODUCED_91_):: defines_var(X_INTRODUCED_91_);
constraint array_bool_and([X_INTRODUCED_76_,X_INTRODUCED_63_,X_INTRODUCED_60_,X_INTRODUCED_57_,X_INTRODUCED_55_,X_INTRODUCED_53_,X_INTRODUCED_49_,X_INTRODUCED_48_,X_INTRODUCED_44_,X_INTRODUCED_34_,X_INTRODUCED_23_,X_INTRODUCED_18_],X_INTRODUCED_92_):: defines_var(X_INTRODUCED_92_);
constraint int_eq_reif(X_INTRODUCED_93_,X_INTRODUCED_94_,X_INTRODUCED_95_):: defines_var(X_INTRODUCED_95_);
constraint int_eq_reif(X_INTRODUCED_97_,X_INTRODUCED_99_,X_INTRODUCED_100_):: defines_var(X_INTRODUCED_100_);
constraint int_lin_eq_reif(X_INTRODUCED_1_,[X_INTRODUCED_101_,X_INTRODUCED_102_],-1,X_INTRODUCED_104_):: defines_var(X_INTRODUCED_104_);
constraint int_eq_reif(X_INTRODUCED_105_,X_INTRODUCED_94_,X_INTRODUCED_106_):: defines_var(X_INTRODUCED_106_);
constraint int_lin_eq_reif(X_INTRODUCED_1_,[X_INTRODUCED_108_,X_INTRODUCED_99_],1,X_INTRODUCED_110_):: defines_var(X_INTRODUCED_110_);
constraint int_lin_eq_reif(X_INTRODUCED_1_,[X_INTRODUCED_111_,X_INTRODUCED_102_],-1,X_INTRODUCED_112_):: defines_var(X_INTRODUCED_112_);
constraint int_lin_eq_reif(X_INTRODUCED_1_,[X_INTRODUCED_113_,X_INTRODUCED_94_],-1,X_INTRODUCED_115_):: defines_var(X_INTRODUCED_115_);
constraint int_eq_reif(X_INTRODUCED_117_,X_INTRODUCED_99_,X_INTRODUCED_118_):: defines_var(X_INTRODUCED_118_);
constraint int_eq_reif(X_INTRODUCED_119_,X_INTRODUCED_102_,X_INTRODUCED_120_):: defines_var(X_INTRODUCED_120_);
constraint array_bool_and([X_INTRODUCED_120_,X_INTRODUCED_118_,X_INTRODUCED_115_,X_INTRODUCED_112_,X_INTRODUCED_110_,X_INTRODUCED_106_,X_INTRODUCED_104_,X_INTRODUCED_100_,X_INTRODUCED_95_],X_INTRODUCED_121_):: defines_var(X_INTRODUCED_121_);
constraint int_lin_eq_reif(X_INTRODUCED_1_,[X_INTRODUCED_93_,X_INTRODUCED_94_],1,X_INTRODUCED_123_):: defines_var(X_INTRODUCED_123_);
constraint int_eq_reif(X_INTRODUCED_101_,X_INTRODUCED_102_,X_INTRODUCED_124_):: defines_var(X_INTRODUCED_124_);
constraint int_lin_eq_reif(X_INTRODUCED_1_,[X_INTRODUCED_105_,X_INTRODUCED_94_],1,X_INTRODUCED_125_):: defines_var(X_INTRODUCED_125_);
constraint int_lin_eq_reif(X_INTRODUCED_1_,[X_INTRODUCED_108_,X_INTRODUCED_99_],-1,X_INTRODUCED_127_):: defines_var(X_INTRODUCED_127_);
constraint int_eq_reif(X_INTRODUCED_111_,X_INTRODUCED_102_,X_INTRODUCED_128_):: defines_var(X_INTRODUCED_128_);
constraint int_eq_reif(X_INTRODUCED_113_,X_INTRODUCED_94_,X_INTRODUCED_129_):: defines_var(X_INTRODUCED_129_);
constraint int_lin_eq_reif(X_INTRODUCED_1_,[X_INTRODUCED_119_,X_INTRODUCED_102_],1,X_INTRODUCED_131_):: defines_var(X_INTRODUCED_131_);
constraint array_bool_and([X_INTRODUCED_131_,X_INTRODUCED_129_,X_INTRODUCED_128_,X_INTRODUCED_127_,X_INTRODUCED_125_,X_INTRODUCED_124_,X_INTRODUCED_123_,X_INTRODUCED_118_,X_INTRODUCED_100_],X_INTRODUCED_132_):: defines_var(X_INTRODUCED_132_);
constraint int_lin_eq_reif(X_INTRODUCED_1_,[X_INTRODUCED_93_,X_INTRODUCED_94_],-1,X_INTRODUCED_133_):: defines_var(X_INTRODUCED_133_);
constraint int_lin_eq_reif(X_INTRODUCED_1_,[X_INTRODUCED_105_,X_INTRODUCED_94_],-1,X_INTRODUCED_134_):: defines_var(X_INTRODUCED_134_);
constraint array_bool_and([X_INTRODUCED_134_,X_INTRODUCED_133_,X_INTRODUCED_131_,X_INTRODUCED_129_,X_INTRODUCED_128_,X_INTRODUCED_124_,X_INTRODUCED_118_,X_INTRODUCED_110_,X_INTRODUCED_100_],X_INTRODUCED_135_):: defines_var(X_INTRODUCED_135_);
constraint int_eq_reif(X_INTRODUCED_108_,X_INTRODUCED_99_,X_INTRODUCED_136_):: defines_var(X_INTRODUCED_136_);
constraint int_lin_eq_reif(X_INTRODUCED_1_,[X_INTRODUCED_111_,X_INTRODUCED_102_],1,X_INTRODUCED_137_):: defines_var(X_INTRODUCED_137_);
constraint int_lin_eq_reif(X_INTRODUCED_1_,[X_INTRODUCED_117_,X_INTRODUCED_99_],-1,X_INTRODUCED_138_):: defines_var(X_INTRODUCED_138_);
constraint array_bool_and([X_INTRODUCED_138_,X_INTRODUCED_137_,X_INTRODUCED_136_,X_INTRODUCED_134_,X_INTRODUCED_133_,X_INTRODUCED_129_,X_INTRODUCED_124_,X_INTRODUCED_120_,X_INTRODUCED_100_],X_INTRODUCED_139_):: defines_var(X_INTRODUCED_139_);
constraint int_lin_eq_reif(X_INTRODUCED_1_,[X_INTRODUCED_97_,X_INTRODUCED_99_],-1,X_INTRODUCED_140_):: defines_var(X_INTRODUCED_140_);
constraint array_bool_and([X_INTRODUCED_140_,X_INTRODUCED_134_,X_INTRODUCED_131_,X_INTRODUCED_129_,X_INTRODUCED_128_,X_INTRODUCED_127_,X_INTRODUCED_124_,X_INTRODUCED_118_,X_INTRODUCED_95_],X_INTRODUCED_141_):: defines_var(X_INTRODUCED_141_);
constraint int_lin_eq_reif(X_INTRODUCED_1_,[X_INTRODUCED_101_,X_INTRODUCED_102_],1,X_INTRODUCED_142_):: defines_var(X_INTRODUCED_142_);
constraint array_bool_and([X_INTRODUCED_142_,X_INTRODUCED_138_,X_INTRODUCED_137_,X_INTRODUCED_136_,X_INTRODUCED_129_,X_INTRODUCED_125_,X_INTRODUCED_120_,X_INTRODUCED_100_,X_INTRODUCED_95_],X_INTRODUCED_143_):: defines_var(X_INTRODUCED_143_);
constraint array_bool_and([X_INTRODUCED_142_,X_INTRODUCED_137_,X_INTRODUCED_127_,X_INTRODUCED_120_,X_INTRODUCED_118_,X_INTRODUCED_115_,X_INTRODUCED_106_,X_INTRODUCED_100_,X_INTRODUCED_95_],X_INTRODUCED_144_):: defines_var(X_INTRODUCED_144_);
constraint int_lin_eq_reif(X_INTRODUCED_1_,[X_INTRODUCED_119_,X_INTRODUCED_102_],-1,X_INTRODUCED_145_):: defines_var(X_INTRODUCED_145_);
constraint array_bool_and([X_INTRODUCED_145_,X_INTRODUCED_134_,X_INTRODUCED_133_,X_INTRODUCED_129_,X_INTRODUCED_128_,X_INTRODUCED_127_,X_INTRODUCED_124_,X_INTRODUCED_118_,X_INTRODUCED_100_],X_INTRODUCED_146_):: defines_var(X_INTRODUCED_146_);
constraint int_lin_eq_reif(X_INTRODUCED_1_,[X_INTRODUCED_117_,X_INTRODUCED_99_],1,X_INTRODUCED_147_):: defines_var(X_INTRODUCED_147_);
constraint array_bool_and([X_INTRODUCED_147_,X_INTRODUCED_137_,X_INTRODUCED_136_,X_INTRODUCED_129_,X_INTRODUCED_125_,X_INTRODUCED_124_,X_INTRODUCED_123_,X_INTRODUCED_120_,X_INTRODUCED_100_],X_INTRODUCED_148_):: defines_var(X_INTRODUCED_148_);
constraint array_bool_and([X_INTRODUCED_147_,X_INTRODUCED_136_,X_INTRODUCED_134_,X_INTRODUCED_133_,X_INTRODUCED_129_,X_INTRODUCED_124_,X_INTRODUCED_120_,X_INTRODUCED_112_,X_INTRODUCED_100_],X_INTRODUCED_149_):: defines_var(X_INTRODUCED_149_);
constraint int_lin_eq_reif(X_INTRODUCED_1_,[X_INTRODUCED_113_,X_INTRODUCED_94_],1,X_INTRODUCED_150_):: defines_var(X_INTRODUCED_150_);
constraint array_bool_and([X_INTRODUCED_150_,X_INTRODUCED_140_,X_INTRODUCED_137_,X_INTRODUCED_127_,X_INTRODUCED_124_,X_INTRODUCED_120_,X_INTRODUCED_118_,X_INTRODUCED_106_,X_INTRODUCED_95_],X_INTRODUCED_151_):: defines_var(X_INTRODUCED_151_);
constraint array_bool_and([X_INTRODUCED_140_,X_INTRODUCED_127_,X_INTRODUCED_124_,X_INTRODUCED_120_,X_INTRODUCED_118_,X_INTRODUCED_115_,X_INTRODUCED_112_,X_INTRODUCED_106_,X_INTRODUCED_95_],X_INTRODUCED_152_):: defines_var(X_INTRODUCED_152_);
constraint array_bool_and([X_INTRODUCED_147_,X_INTRODUCED_142_,X_INTRODUCED_137_,X_INTRODUCED_136_,X_INTRODUCED_134_,X_INTRODUCED_129_,X_INTRODUCED_120_,X_INTRODUCED_100_,X_INTRODUCED_95_],X_INTRODUCED_153_):: defines_var(X_INTRODUCED_153_);
constraint array_bool_and([X_INTRODUCED_150_,X_INTRODUCED_142_,X_INTRODUCED_137_,X_INTRODUCED_120_,X_INTRODUCED_118_,X_INTRODUCED_110_,X_INTRODUCED_106_,X_INTRODUCED_100_,X_INTRODUCED_95_],X_INTRODUCED_154_):: defines_var(X_INTRODUCED_154_);
constraint int_lin_eq_reif(X_INTRODUCED_1_,[X_INTRODUCED_97_,X_INTRODUCED_99_],1,X_INTRODUCED_155_):: defines_var(X_INTRODUCED_155_);
constraint array_bool_and([X_INTRODUCED_155_,X_INTRODUCED_131_,X_INTRODUCED_129_,X_INTRODUCED_128_,X_INTRODUCED_125_,X_INTRODUCED_124_,X_INTRODUCED_118_,X_INTRODUCED_110_,X_INTRODUCED_95_],X_INTRODUCED_156_):: defines_var(X_INTRODUCED_156_);
constraint array_bool_and([X_INTRODUCED_145_,X_INTRODUCED_140_,X_INTRODUCED_129_,X_INTRODUCED_128_,X_INTRODUCED_127_,X_INTRODUCED_125_,X_INTRODUCED_124_,X_INTRODUCED_118_,X_INTRODUCED_95_],X_INTRODUCED_157_):: defines_var(X_INTRODUCED_157_);
constraint array_bool_and([X_INTRODUCED_147_,X_INTRODUCED_136_,X_INTRODUCED_129_,X_INTRODUCED_125_,X_INTRODUCED_120_,X_INTRODUCED_112_,X_INTRODUCED_104_,X_INTRODUCED_100_,X_INTRODUCED_95_],X_INTRODUCED_158_):: defines_var(X_INTRODUCED_158_);
constraint array_bool_and([X_INTRODUCED_155_,X_INTRODUCED_145_,X_INTRODUCED_134_,X_INTRODUCED_129_,X_INTRODUCED_128_,X_INTRODUCED_124_,X_INTRODUCED_118_,X_INTRODUCED_110_,X_INTRODUCED_95_],X_INTRODUCED_159_):: defines_var(X_INTRODUCED_159_);
constraint array_bool_and([X_INTRODUCED_155_,X_INTRODUCED_137_,X_INTRODUCED_124_,X_INTRODUCED_120_,X_INTRODUCED_118_,X_INTRODUCED_115_,X_INTRODUCED_110_,X_INTRODUCED_106_,X_INTRODUCED_95_],X_INTRODUCED_160_):: defines_var(X_INTRODUCED_160_);
constraint array_bool_and([X_INTRODUCED_138_,X_INTRODUCED_136_,X_INTRODUCED_129_,X_INTRODUCED_125_,X_INTRODUCED_124_,X_INTRODUCED_123_,X_INTRODUCED_120_,X_INTRODUCED_112_,X_INTRODUCED_100_],X_INTRODUCED_161_):: defines_var(X_INTRODUCED_161_);
constraint array_bool_and([X_INTRODUCED_145_,X_INTRODUCED_129_,X_INTRODUCED_128_,X_INTRODUCED_125_,X_INTRODUCED_124_,X_INTRODUCED_123_,X_INTRODUCED_118_,X_INTRODUCED_110_,X_INTRODUCED_100_],X_INTRODUCED_162_):: defines_var(X_INTRODUCED_162_);
constraint array_bool_and([X_INTRODUCED_150_,X_INTRODUCED_127_,X_INTRODUCED_120_,X_INTRODUCED_118_,X_INTRODUCED_112_,X_INTRODUCED_106_,X_INTRODUCED_104_,X_INTRODUCED_100_,X_INTRODUCED_95_],X_INTRODUCED_163_):: defines_var(X_INTRODUCED_163_);
constraint array_bool_and([X_INTRODUCED_138_,X_INTRODUCED_136_,X_INTRODUCED_134_,X_INTRODUCED_129_,X_INTRODUCED_120_,X_INTRODUCED_112_,X_INTRODUCED_104_,X_INTRODUCED_100_,X_INTRODUCED_95_],X_INTRODUCED_164_):: defines_var(X_INTRODUCED_164_);
constraint array_bool_and([X_INTRODUCED_155_,X_INTRODUCED_150_,X_INTRODUCED_124_,X_INTRODUCED_120_,X_INTRODUCED_118_,X_INTRODUCED_112_,X_INTRODUCED_110_,X_INTRODUCED_106_,X_INTRODUCED_95_],X_INTRODUCED_165_):: defines_var(X_INTRODUCED_165_);
solve  satisfy;
